\ Generated by MPModelProtoExporter
\   Name             : 
\   Format           : Free
\   Constraints      : 4
\   Variables        : 7
\     Binary         : 7
\     Integer        : 0
\     Continuous     : 0
Maximize
 Obj: +17 x0 +10 x1 +15 x2 +19 x3 +7 x4 +13 x5 +9 x6 
Subject to
 auto_c_000000000: +1 x0 +1 x1  = 1
 auto_c_000000001: +1 x2 +1 x3  = 1
 auto_c_000000002: +1 x0 +1 x1 -1 x2 -1 x3  >= 0
 auto_c_000000003: +43 x0 +28 x1 +34 x2 +48 x3 +17 x4 +32 x5 +23 x6  <= 100
Bounds
 0 <= x0 <= 1
 0 <= x1 <= 1
 0 <= x2 <= 1
 0 <= x3 <= 1
 0 <= x4 <= 1
 0 <= x5 <= 1
 0 <= x6 <= 1
Binaries
 x0
 x1
 x2
 x3
 x4
 x5
 x6
End
